(set-info :source |printed by MathSAT|)
(declare-fun call_sustain.ite () Bool)
(declare-fun call_sustain.s () Bool)
(declare-fun call_fedge2.call_redge.r () Bool)
(declare-fun stop () Bool)
(declare-fun call_sustain.ite2 () Bool)
(declare-fun MayMove1 () Bool)
(declare-fun MayMove2 () Bool)
(declare-fun start2 () Bool)
(declare-fun start1 () Bool)
(declare-fun call_fedge2.call_redge.flby () Bool)
(declare-fun call_redge.r () Bool)
(declare-fun ite () Bool)
(declare-fun call_redge3.r () Bool)
(declare-fun call_sustain.flby () Bool)
(declare-fun flby () Bool)
(declare-fun ite2 () Bool)
(declare-fun call_fedge.call_redge.flby () Bool)
(declare-fun _OK_ () Bool)
(declare-fun param_TryToMove1 () Bool)
(declare-fun call_redge2.flby () Bool)
(declare-fun param_TryToMove2 () Bool)
(declare-fun call_redge2.r () Bool)
(declare-fun call_redge4.flby () Bool)
(declare-fun call_redge3.flby () Bool)
(declare-fun call_fedge2.f () Bool)
(declare-fun call_fedge.f () Bool)
(declare-fun moving () Bool)
(declare-fun call_redge.flby () Bool)
(declare-fun flby3 () Bool)
(declare-fun call_fedge.call_redge.r () Bool)
(declare-fun param_MaySafelyMove () Bool)
(declare-fun flby2 () Bool)
(declare-fun call_redge4.r () Bool)
(define-fun .def_401 () Bool (= call_redge4.flby call_redge4.r))
(define-fun .def_399 () Bool (= call_redge3.flby call_redge3.r))
(define-fun .def_397 () Bool (= call_fedge2.call_redge.flby call_fedge2.call_redge.r))
(define-fun .def_395 () Bool (= call_fedge2.f call_fedge2.call_redge.r))
(define-fun .def_392 () Bool (= call_fedge.call_redge.flby call_fedge.call_redge.r))
(define-fun .def_390 () Bool (= call_fedge.f call_fedge.call_redge.r))
(define-fun .def_387 () Bool (= call_redge2.flby call_redge2.r))
(define-fun .def_385 () Bool (= call_redge.flby call_redge.r))
(define-fun .def_383 () Bool (= call_sustain.flby call_sustain.s))
(define-fun .def_354 () Bool (not call_redge4.r))
(define-fun .def_352 () Bool (not call_redge3.r))
(define-fun .def_355 () Bool (or .def_352 .def_354))
(define-fun .def_381 () Bool (or ite2 .def_355))
(define-fun .def_378 () Bool (= moving call_sustain.s))
(define-fun .def_374 () Bool (not moving))
(define-fun .def_373 () Bool (= param_MaySafelyMove ite))
(define-fun .def_375 () Bool (or .def_373 .def_374))
(define-fun .def_372 () Bool (or ite moving))
(define-fun .def_376 () Bool (and .def_372 .def_375))
(define-fun .def_379 () Bool (and .def_376 .def_378))
(define-fun .def_368 () Bool (or call_fedge.f call_fedge2.f))
(define-fun .def_369 () Bool (= stop .def_368))
(define-fun .def_364 () Bool (= start2 call_redge2.r))
(define-fun .def_360 () Bool (= start1 call_redge.r))
(define-fun .def_356 () Bool (not .def_355))
(define-fun .def_341 () Bool (not start2))
(define-fun .def_339 () Bool (not start1))
(define-fun .def_343 () Bool (and .def_339 .def_341))
(define-fun .def_281 () Bool (not stop))
(define-fun .def_342 () Bool (and .def_281 .def_341))
(define-fun .def_344 () Bool (or .def_342 .def_343))
(define-fun .def_340 () Bool (and .def_281 .def_339))
(define-fun .def_345 () Bool (or .def_340 .def_344))
(define-fun .def_336 () Bool (and start1 start2))
(define-fun .def_337 () Bool (and stop .def_336))
(define-fun .def_338 () Bool (not .def_337))
(define-fun .def_346 () Bool (and .def_338 .def_345))
(define-fun .def_348 () Bool (and .def_346 ite))
(define-fun .def_350 () Bool (= .def_348 ite2))
(define-fun .def_357 () Bool (or .def_350 .def_356))
(define-fun .def_291 () Bool (or start1 start2))
(define-fun .def_333 () Bool (not .def_291))
(define-fun .def_334 () Bool (or call_sustain.ite2 .def_333))
(define-fun .def_331 () Bool (= call_sustain.ite call_sustain.ite2))
(define-fun .def_332 () Bool (or .def_291 .def_331))
(define-fun .def_335 () Bool (and .def_332 .def_334))
(define-fun .def_358 () Bool (and .def_335 .def_357))
(define-fun .def_361 () Bool (and .def_358 .def_360))
(define-fun .def_327 () Bool (and param_TryToMove2 param_MaySafelyMove))
(define-fun .def_328 () Bool (= MayMove2 .def_327))
(define-fun .def_325 () Bool (= flby3 _OK_))
(define-fun .def_322 () Bool (and param_TryToMove1 param_MaySafelyMove))
(define-fun .def_323 () Bool (= MayMove1 .def_322))
(define-fun .def_326 () Bool (and .def_323 .def_325))
(define-fun .def_329 () Bool (and .def_326 .def_328))
(define-fun .def_362 () Bool (and .def_329 .def_361))
(define-fun .def_365 () Bool (and .def_362 .def_364))
(define-fun .def_370 () Bool (and .def_365 .def_369))
(define-fun .def_380 () Bool (and .def_370 .def_379))
(define-fun .def_382 () Bool (and .def_380 .def_381))
(define-fun .def_384 () Bool (and .def_382 .def_383))
(define-fun .def_386 () Bool (and .def_384 .def_385))
(define-fun .def_388 () Bool (and .def_386 .def_387))
(define-fun .def_391 () Bool (and .def_388 .def_390))
(define-fun .def_393 () Bool (and .def_391 .def_392))
(define-fun .def_396 () Bool (and .def_393 .def_395))
(define-fun .def_398 () Bool (and .def_396 .def_397))
(define-fun .def_400 () Bool (and .def_398 .def_399))
(define-fun .def_402 () Bool (and .def_400 .def_401))
(define-fun .def_319 () Bool (= param_TryToMove2 call_redge4.flby))
(define-fun .def_315 () Bool (= param_TryToMove1 call_redge3.flby))
(define-fun .def_309 () Bool (not MayMove2))
(define-fun .def_311 () Bool (= .def_309 call_fedge2.call_redge.flby))
(define-fun .def_305 () Bool (not MayMove1))
(define-fun .def_307 () Bool (= .def_305 call_fedge.call_redge.flby))
(define-fun .def_301 () Bool (and flby2 MayMove2))
(define-fun .def_303 () Bool (= .def_301 call_redge2.flby))
(define-fun .def_296 () Bool (and flby MayMove1))
(define-fun .def_298 () Bool (= .def_296 call_redge.flby))
(define-fun .def_293 () Bool (= .def_291 call_sustain.flby))
(define-fun .def_279 () Bool (not call_sustain.ite))
(define-fun .def_282 () Bool (or .def_279 .def_281))
(define-fun .def_284 () Bool (and .def_282 flby))
(define-fun .def_286 () Bool (and .def_284 flby2))
(define-fun .def_288 () Bool (and .def_286 flby3))
(define-fun .def_294 () Bool (and .def_288 .def_293))
(define-fun .def_299 () Bool (and .def_294 .def_298))
(define-fun .def_304 () Bool (and .def_299 .def_303))
(define-fun .def_308 () Bool (and .def_304 .def_307))
(define-fun .def_312 () Bool (and .def_308 .def_311))
(define-fun .def_316 () Bool (and .def_312 .def_315))
(define-fun .def_320 () Bool (and .def_316 .def_319))
(define-fun .def_403 () Bool (and .def_320 .def_402))
(assert .def_403)
